c Random Network
p max    10      20
n         1  s
n        10  t
a       1       2      11
a       1       5       6
a       1       3      12
a       8       2      27
a       7       5      10
a       3       1       7
a       7       3      25
a      10       9      45
a       2       3      40
a       5       3      44
a       5       7       8
a       6       2      18
a       2       6      26
a       2       1      41
a       2       4       5
a       6       1       5
a       3       2       7
a       7       4       3
a       8       1       8
a       7       1       8
